10 10 4

0 253 389 118 96 127 390 132 348 112 
125 0 100 467 480 450 143 128 196 304 
85 362 0 268 108 254 456 383 255 87 
292 473 389 0 367 225 484 191 271 111 
287 109 409 349 0 184 215 315 370 164 
408 449 66 418 484 0 378 186 298 339 
348 387 93 386 386 65 0 274 252 447 
258 150 217 75 387 483 190 0 236 167 
355 50 243 225 165 398 448 289 0 137 
81 425 385 370 273 479 414 365 364 0 

80.6 0 3
80.6 1 0
80.6 2 7
80.6 3 4
80.6 4 0
80.6 5 7
80.6 6 7
80.6 7 0
80.6 8 6
80.6 9 8

